Optimize a model with 4 rows, 13 columns and 40 nonzeros
Coefficient statistics:
  Matrix range     [1e+00, 2e+03]
  Objective range  [9e-01, 3e+00]
  Bounds range     [7e+01, 2e+03]
  RHS range        [0e+00, 0e+00]
Presolve removed 0 rows and 3 columns
Presolve time: 0.00s
Presolved: 4 rows, 10 columns, 37 nonzeros

Iteration    Objective       Primal Inf.    Dual Inf.      Time
       0    0.0000000e+00   4.601563e+00   0.000000e+00      0s
       4    1.1828861e+01   0.000000e+00   0.000000e+00      0s

Solved in 4 iterations and 0.01 seconds
Optimal objective  1.182886111e+01
Optimize a model with 5 rows, 13 columns and 42 nonzeros
Coefficient statistics:
  Matrix range     [1e+00, 2e+03]
  Objective range  [9e-01, 3e+00]
  Bounds range     [7e+01, 2e+03]
  RHS range        [6e+00, 6e+00]
Iteration    Objective       Primal Inf.    Dual Inf.      Time
       0    1.1828861e+01   3.561458e+00   0.000000e+00      0s

Solved in 0 iterations and 0.00 seconds
Infeasible model
Optimize a model with 5 rows, 10 columns and 10 nonzeros
Coefficient statistics:
  Matrix range     [6e+07, 1e+08]
  Objective range  [2e+01, 3e+01]
  Bounds range     [0e+00, 0e+00]
  RHS range        [1e+08, 1e+09]
Warning: Model contains large matrix coefficients
Warning: Model contains large rhs
         Consider reformulating model or setting NumericFocus parameter
         to avoid numerical issues.
Presolve removed 5 rows and 10 columns
Presolve time: 0.00s
Presolve: All rows and columns removed
Iteration    Objective       Primal Inf.    Dual Inf.      Time
       0    5.5341880e+02   0.000000e+00   0.000000e+00      0s

Solved in 0 iterations and 0.01 seconds
Optimal objective  5.534188034e+02
Optimize a model with 5 rows, 10 columns and 10 nonzeros
Coefficient statistics:
  Matrix range     [6e+07, 1e+08]
  Objective range  [2e+01, 3e+01]
  Bounds range     [0e+00, 0e+00]
  RHS range        [1e+08, 1e+09]
Warning: Model contains large matrix coefficients
Warning: Model contains large rhs
         Consider reformulating model or setting NumericFocus parameter
         to avoid numerical issues.

Solved in 0 iterations and 0.01 seconds
Optimal objective  5.534188034e+02
Changed value of parameter method to 2
   Prev: -1  Min: -1  Max: 4  Default: -1
Optimize a model with 9 rows, 25 columns and 45 nonzeros
Variable types: 20 continuous, 5 integer (5 binary)
Coefficient statistics:
  Matrix range     [1e+00, 2e+01]
  Objective range  [1e+03, 2e+04]
  Bounds range     [1e+00, 1e+00]
  RHS range        [1e+01, 2e+01]
Presolve time: 0.00s
Presolved: 9 rows, 25 columns, 45 nonzeros

Loaded MIP start with objective 210500

Variable types: 20 continuous, 5 integer (5 binary)
Presolved: 9 rows, 25 columns, 45 nonzeros

Root barrier log...

Ordering time: 0.00s

Barrier statistics:
 AA' NZ     : 2.000e+01
 Factor NZ  : 4.500e+01
 Factor Ops : 2.850e+02 (less than 1 second per iteration)
 Threads    : 1

                  Objective                Residual
Iter       Primal          Dual         Primal    Dual     Compl     Time
   0   1.06795646e+06  1.22617897e+04  3.03e+01 1.50e+03  1.87e+04     0s
   1   2.25539469e+05  1.42656548e+05  1.24e-14 4.09e-12  1.66e+03     0s
   2   2.12937149e+05  1.84412085e+05  3.55e-15 3.64e-12  5.71e+02     0s
   3   2.02563357e+05  1.94156666e+05  2.84e-14 5.46e-12  1.68e+02     0s
   4   2.01085248e+05  1.99357965e+05  2.27e-12 3.64e-12  3.45e+01     0s
   5   2.00303029e+05  1.99732255e+05  9.06e-13 3.64e-12  1.14e+01     0s
   6   2.00047584e+05  1.99827864e+05  1.49e-11 3.64e-12  4.39e+00     0s
   7   1.99833360e+05  1.99833327e+05  2.49e-14 3.64e-12  6.66e-04     0s
   8   1.99833333e+05  1.99833333e+05  3.66e-13 2.43e-12  7.05e-10     0s

Barrier solved model in 8 iterations and 0.35 seconds
Optimal objective 1.99833333e+05


Root relaxation: objective 1.998333e+05, 7 iterations, 0.02 seconds

    Nodes    |    Current Node    |     Objective Bounds      |     Work
 Expl Unexpl |  Obj  Depth IntInf | Incumbent    BestBd   Gap | It/Node Time

     0     0 199833.333    0    1 210500.000 199833.333  5.07%     -    0s
     0     0 200025.455    0    2 210500.000 200025.455  4.98%     -    0s
     0     0 200610.000    0    2 210500.000 200610.000  4.70%     -    0s
     0     0 205273.684    0    1 210500.000 205273.684  2.48%     -    0s

Cutting planes:
  Flow cover: 1

Explored 0 nodes (14 simplex iterations) in 0.40 seconds
Thread count was 8 (of 8 available processors)

Solution count 1: 210500 
Pool objective bound 210500

Optimal solution found (tolerance 1.00e-04)
Best objective 2.105000000000e+05, best bound 2.105000000000e+05, gap 0.0000%
Changed value of parameter method to 2
   Prev: -1  Min: -1  Max: 4  Default: -1
Optimize a model with 9 rows, 25 columns and 45 nonzeros
Variable types: 20 continuous, 5 integer (5 binary)
Coefficient statistics:
  Matrix range     [1e+00, 2e+01]
  Objective range  [1e+03, 2e+04]
  Bounds range     [1e+00, 1e+00]
  RHS range        [1e+01, 2e+01]
Presolve time: 0.00s
Presolved: 9 rows, 25 columns, 45 nonzeros

Loaded MIP start with objective 210500

Variable types: 20 continuous, 5 integer (5 binary)
Presolved: 9 rows, 25 columns, 45 nonzeros

Root barrier log...

Ordering time: 0.00s

Barrier statistics:
 AA' NZ     : 2.000e+01
 Factor NZ  : 4.500e+01
 Factor Ops : 2.850e+02 (less than 1 second per iteration)
 Threads    : 1

                  Objective                Residual
Iter       Primal          Dual         Primal    Dual     Compl     Time
   0   1.06795646e+06  1.22617897e+04  3.03e+01 1.50e+03  1.87e+04     0s
   1   2.25539469e+05  1.42656548e+05  1.24e-14 4.09e-12  1.66e+03     0s
   2   2.12937149e+05  1.84412085e+05  3.55e-15 3.64e-12  5.71e+02     0s
   3   2.02563357e+05  1.94156666e+05  2.84e-14 5.46e-12  1.68e+02     0s
   4   2.01085248e+05  1.99357965e+05  2.27e-12 3.64e-12  3.45e+01     0s
   5   2.00303029e+05  1.99732255e+05  9.06e-13 3.64e-12  1.14e+01     0s
   6   2.00047584e+05  1.99827864e+05  1.49e-11 3.64e-12  4.39e+00     0s
   7   1.99833360e+05  1.99833327e+05  2.49e-14 3.64e-12  6.66e-04     0s
   8   1.99833333e+05  1.99833333e+05  3.66e-13 2.43e-12  7.05e-10     0s

Barrier solved model in 8 iterations and 0.01 seconds
Optimal objective 1.99833333e+05


Root relaxation: objective 1.998333e+05, 7 iterations, 0.01 seconds

    Nodes    |    Current Node    |     Objective Bounds      |     Work
 Expl Unexpl |  Obj  Depth IntInf | Incumbent    BestBd   Gap | It/Node Time

     0     0 199833.333    0    1 210500.000 199833.333  5.07%     -    0s
     0     0 200025.455    0    2 210500.000 200025.455  4.98%     -    0s
     0     0 200610.000    0    2 210500.000 200610.000  4.70%     -    0s
     0     0 205273.684    0    1 210500.000 205273.684  2.48%     -    0s

Cutting planes:
  Flow cover: 1

Explored 0 nodes (14 simplex iterations) in 0.02 seconds
Thread count was 8 (of 8 available processors)

Solution count 1: 210500 
Pool objective bound 210500

Optimal solution found (tolerance 1.00e-04)
Best objective 2.105000000000e+05, best bound 2.105000000000e+05, gap 0.0000%
Optimize a model with 16 rows, 12 columns and 36 nonzeros
Coefficient statistics:
  Matrix range     [1e+00, 1e+00]
  Objective range  [1e+01, 8e+01]
  Bounds range     [0e+00, 0e+00]
  RHS range        [1e+01, 1e+02]
Presolve removed 16 rows and 12 columns
Presolve time: 0.00s
Presolve: All rows and columns removed
Iteration    Objective       Primal Inf.    Dual Inf.      Time
       0    5.5000000e+03   0.000000e+00   0.000000e+00      0s

Solved in 0 iterations and 0.00 seconds
Optimal objective  5.500000000e+03
Optimize a model with 14 rows, 72 columns and 72 nonzeros
Coefficient statistics:
  Matrix range     [1e+00, 1e+00]
  Objective range  [8e+00, 1e+01]
  Bounds range     [1e+00, 1e+00]
  RHS range        [2e+00, 7e+00]
Presolve removed 1 rows and 34 columns
Presolve time: 0.00s

Solved in 0 iterations and 0.00 seconds
Infeasible model
Iteration    Objective       Primal Inf.    Dual Inf.      Time
       0    4.6400000e+02   4.400000e+01   0.000000e+00      0s

IIS computed: 1 constraints and 5 bounds
IIS runtime: 0.00 seconds
Optimize a model with 14 rows, 72 columns and 72 nonzeros
Coefficient statistics:
  Matrix range     [1e+00, 1e+00]
  Objective range  [8e+00, 1e+01]
  Bounds range     [1e+00, 1e+00]
  RHS range        [2e+00, 7e+00]
Presolve removed 1 rows and 34 columns
Presolve time: 0.00s

Solved in 0 iterations and 0.00 seconds
Infeasible model
Iteration    Objective       Primal Inf.    Dual Inf.      Time
       0    4.6400000e+02   4.400000e+01   0.000000e+00      0s

IIS computed: 1 constraints and 5 bounds
IIS runtime: 0.00 seconds
Optimize a model with 13 rows, 72 columns and 67 nonzeros
Coefficient statistics:
  Matrix range     [1e+00, 1e+00]
  Objective range  [8e+00, 1e+01]
  Bounds range     [1e+00, 1e+00]
  RHS range        [2e+00, 7e+00]
Presolve removed 1 rows and 35 columns
Presolve time: 0.00s

Solved in 0 iterations and 0.00 seconds
Infeasible model
Iteration    Objective       Primal Inf.    Dual Inf.      Time
       0    4.1600000e+02   3.900000e+01   0.000000e+00      0s

IIS computed: 1 constraints and 4 bounds
IIS runtime: 0.00 seconds
Optimize a model with 12 rows, 72 columns and 63 nonzeros
Coefficient statistics:
  Matrix range     [1e+00, 1e+00]
  Objective range  [8e+00, 1e+01]
  Bounds range     [1e+00, 1e+00]
  RHS range        [2e+00, 7e+00]
Presolve removed 1 rows and 36 columns
Presolve time: 0.00s

Solved in 0 iterations and 0.00 seconds
Infeasible model
Iteration    Objective       Primal Inf.    Dual Inf.      Time
       0    3.6800000e+02   3.400000e+01   0.000000e+00      0s

IIS computed: 1 constraints and 4 bounds
IIS runtime: 0.00 seconds
Optimize a model with 11 rows, 72 columns and 59 nonzeros
Coefficient statistics:
  Matrix range     [1e+00, 1e+00]
  Objective range  [8e+00, 1e+01]
  Bounds range     [1e+00, 1e+00]
  RHS range        [2e+00, 7e+00]
Presolve removed 1 rows and 37 columns
Presolve time: 0.00s

Solved in 0 iterations and 0.00 seconds
Infeasible model
Iteration    Objective       Primal Inf.    Dual Inf.      Time
       0    3.2800000e+02   3.000000e+01   0.000000e+00      0s

IIS computed: 1 constraints and 2 bounds
IIS runtime: 0.00 seconds
Optimize a model with 10 rows, 72 columns and 57 nonzeros
Coefficient statistics:
  Matrix range     [1e+00, 1e+00]
  Objective range  [8e+00, 1e+01]
  Bounds range     [1e+00, 1e+00]
  RHS range        [2e+00, 7e+00]
Presolve removed 8 rows and 70 columns
Presolve time: 0.00s
Presolved: 2 rows, 2 columns, 2 nonzeros

Iteration    Objective       Primal Inf.    Dual Inf.      Time
       0    3.3500000e+02   0.000000e+00   0.000000e+00      0s
       0    3.3500000e+02   0.000000e+00   0.000000e+00      0s

Solved in 0 iterations and 0.00 seconds
Optimal objective  3.350000000e+02
